\ENCODING=ISO-8859-1
\Problem name: ilog.cplex

Minimize
 obj1: 10 x(5,5,1) + 10 x(5,4,1) + 10 x(5,3,1) + 10 x(5,2,1) + 10 x(5,1,1)
       + 50 x(5,0,1) + 10 x(4,5,1) + 10 x(4,4,1) + 10 x(4,3,1) + 10 x(4,2,1)
       + 10 x(4,1,1) + 50 x(4,0,1) + 10 x(3,5,1) + 10 x(3,4,1) + 10 x(3,3,1)
       + 10 x(3,2,1) + 10 x(3,1,1) + 50 x(3,0,1) + 10 x(2,5,1) + 10 x(2,4,1)
       + 10 x(2,3,1) + 10 x(2,2,1) + 10 x(2,1,1) + 50 x(2,0,1) + 10 x(1,5,1)
       + 10 x(1,4,1) + 10 x(1,3,1) + 10 x(1,2,1) + 10 x(1,1,1) + 50 x(1,0,1)
       + 10 x(0,5,1) + 10 x(0,4,1) + 10 x(0,3,1) + 10 x(0,2,1) + 10 x(0,1,1)
       + 50 x(0,0,1)
Subject To
 _10b,0,0#0:      - 0.0155035629945915 x(5,5,1) - 0.0155035629945915 x(5,4,1)
                  - 0.131184943737157 x(5,4,0) - 0.0155035629945915 x(5,3,1)
                  - 0.10360579336485 x(5,3,0) - 0.0155035629945915 x(5,2,1)
                  - 0.0751511867837952 x(5,2,0) - 0.0155035629945915 x(5,1,1)
                  - 0.0457933340308117 x(5,1,0) - 0.0155035629945915 x(5,0,1)
                  + x(0,0,1)  = 0
 _10b,0,1#1:      - 0.984496437005408 x(5,5,1) - 0.984496437005408 x(5,4,1)
                  - 0.984496437005408 x(5,3,1) - 0.984496437005408 x(5,2,1)
                  - 0.984496437005408 x(5,1,1) - 0.984496437005408 x(5,0,1)
                  + x(0,1,1) + x(0,1,0)  = 0
 _10b,0,2#2:      - 0.954206665969188 x(5,1,0) + x(0,2,1) + x(0,2,0)  = 0
 _10b,0,3#3:      - 0.924848813216205 x(5,2,0) + x(0,3,1) + x(0,3,0)  = 0
 _10b,0,4#4:      - 0.89639420663515 x(5,3,0) + x(0,4,1) + x(0,4,0)  = 0
 _10b,0,5#5:      - 0.868815056262843 x(5,4,0) + x(0,5,1)  = 0
 _10b,1,0#6:      x(1,0,1) - 0.0155035629945915 x(0,5,1)
                  - 0.0155035629945915 x(0,4,1) - 0.131184943737157 x(0,4,0)
                  - 0.0155035629945915 x(0,3,1) - 0.10360579336485 x(0,3,0)
                  - 0.0155035629945915 x(0,2,1) - 0.0751511867837952 x(0,2,0)
                  - 0.0155035629945915 x(0,1,1) - 0.0457933340308117 x(0,1,0)
                  - 0.0155035629945915 x(0,0,1)  = 0
 _10b,1,1#7:      x(1,1,1) + x(1,1,0) - 0.984496437005408 x(0,5,1)
                  - 0.984496437005408 x(0,4,1) - 0.984496437005408 x(0,3,1)
                  - 0.984496437005408 x(0,2,1) - 0.984496437005408 x(0,1,1)
                  - 0.984496437005408 x(0,0,1)  = 0
 _10b,1,2#8:      x(1,2,1) + x(1,2,0) - 0.954206665969188 x(0,1,0)  = 0
 _10b,1,3#9:      x(1,3,1) + x(1,3,0) - 0.924848813216205 x(0,2,0)  = 0
 _10b,1,4#10:     x(1,4,1) + x(1,4,0) - 0.89639420663515 x(0,3,0)  = 0
 _10b,1,5#11:     x(1,5,1) - 0.868815056262843 x(0,4,0)  = 0
 _10b,2,0#12:     x(2,0,1) - 0.0155035629945915 x(1,5,1)
                  - 0.0155035629945915 x(1,4,1) - 0.131184943737157 x(1,4,0)
                  - 0.0155035629945915 x(1,3,1) - 0.10360579336485 x(1,3,0)
                  - 0.0155035629945915 x(1,2,1) - 0.0751511867837952 x(1,2,0)
                  - 0.0155035629945915 x(1,1,1) - 0.0457933340308117 x(1,1,0)
                  - 0.0155035629945915 x(1,0,1)  = 0
 _10b,2,1#13:     x(2,1,1) + x(2,1,0) - 0.984496437005408 x(1,5,1)
                  - 0.984496437005408 x(1,4,1) - 0.984496437005408 x(1,3,1)
                  - 0.984496437005408 x(1,2,1) - 0.984496437005408 x(1,1,1)
                  - 0.984496437005408 x(1,0,1)  = 0
 _10b,2,2#14:     x(2,2,1) + x(2,2,0) - 0.954206665969188 x(1,1,0)  = 0
 _10b,2,3#15:     x(2,3,1) + x(2,3,0) - 0.924848813216205 x(1,2,0)  = 0
 _10b,2,4#16:     x(2,4,1) + x(2,4,0) - 0.89639420663515 x(1,3,0)  = 0
 _10b,2,5#17:     x(2,5,1) - 0.868815056262843 x(1,4,0)  = 0
 _10b,3,0#18:     x(3,0,1) - 0.0155035629945915 x(2,5,1)
                  - 0.0155035629945915 x(2,4,1) - 0.131184943737157 x(2,4,0)
                  - 0.0155035629945915 x(2,3,1) - 0.10360579336485 x(2,3,0)
                  - 0.0155035629945915 x(2,2,1) - 0.0751511867837952 x(2,2,0)
                  - 0.0155035629945915 x(2,1,1) - 0.0457933340308117 x(2,1,0)
                  - 0.0155035629945915 x(2,0,1)  = 0
 _10b,3,1#19:     x(3,1,1) + x(3,1,0) - 0.984496437005408 x(2,5,1)
                  - 0.984496437005408 x(2,4,1) - 0.984496437005408 x(2,3,1)
                  - 0.984496437005408 x(2,2,1) - 0.984496437005408 x(2,1,1)
                  - 0.984496437005408 x(2,0,1)  = 0
 _10b,3,2#20:     x(3,2,1) + x(3,2,0) - 0.954206665969188 x(2,1,0)  = 0
 _10b,3,3#21:     x(3,3,1) + x(3,3,0) - 0.924848813216205 x(2,2,0)  = 0
 _10b,3,4#22:     x(3,4,1) + x(3,4,0) - 0.89639420663515 x(2,3,0)  = 0
 _10b,3,5#23:     x(3,5,1) - 0.868815056262843 x(2,4,0)  = 0
 _10b,4,0#24:     x(4,0,1) - 0.0155035629945915 x(3,5,1)
                  - 0.0155035629945915 x(3,4,1) - 0.131184943737157 x(3,4,0)
                  - 0.0155035629945915 x(3,3,1) - 0.10360579336485 x(3,3,0)
                  - 0.0155035629945915 x(3,2,1) - 0.0751511867837952 x(3,2,0)
                  - 0.0155035629945915 x(3,1,1) - 0.0457933340308117 x(3,1,0)
                  - 0.0155035629945915 x(3,0,1)  = 0
 _10b,4,1#25:     x(4,1,1) + x(4,1,0) - 0.984496437005408 x(3,5,1)
                  - 0.984496437005408 x(3,4,1) - 0.984496437005408 x(3,3,1)
                  - 0.984496437005408 x(3,2,1) - 0.984496437005408 x(3,1,1)
                  - 0.984496437005408 x(3,0,1)  = 0
 _10b,4,2#26:     x(4,2,1) + x(4,2,0) - 0.954206665969188 x(3,1,0)  = 0
 _10b,4,3#27:     x(4,3,1) + x(4,3,0) - 0.924848813216205 x(3,2,0)  = 0
 _10b,4,4#28:     x(4,4,1) + x(4,4,0) - 0.89639420663515 x(3,3,0)  = 0
 _10b,4,5#29:     x(4,5,1) - 0.868815056262843 x(3,4,0)  = 0
 _10b,5,0#30:     x(5,0,1) - 0.0155035629945915 x(4,5,1)
                  - 0.0155035629945915 x(4,4,1) - 0.131184943737157 x(4,4,0)
                  - 0.0155035629945915 x(4,3,1) - 0.10360579336485 x(4,3,0)
                  - 0.0155035629945915 x(4,2,1) - 0.0751511867837952 x(4,2,0)
                  - 0.0155035629945915 x(4,1,1) - 0.0457933340308117 x(4,1,0)
                  - 0.0155035629945915 x(4,0,1)  = 0
 _10b,5,1#31:     x(5,1,1) + x(5,1,0) - 0.984496437005408 x(4,5,1)
                  - 0.984496437005408 x(4,4,1) - 0.984496437005408 x(4,3,1)
                  - 0.984496437005408 x(4,2,1) - 0.984496437005408 x(4,1,1)
                  - 0.984496437005408 x(4,0,1)  = 0
 _10b,5,2#32:     x(5,2,1) + x(5,2,0) - 0.954206665969188 x(4,1,0)  = 0
 _10b,5,3#33:     x(5,3,1) + x(5,3,0) - 0.924848813216205 x(4,2,0)  = 0
 _10b,5,4#34:     x(5,4,1) + x(5,4,0) - 0.89639420663515 x(4,3,0)  = 0
 _10b,5,5#35:     x(5,5,1) - 0.868815056262843 x(4,4,0)  = 0
 _10e,0#36:       x(0,5,1) + x(0,4,1) + x(0,4,0) + x(0,3,1) + x(0,3,0)
                  + x(0,2,1) + x(0,2,0) + x(0,1,1) + x(0,1,0) + x(0,0,1)
                   = 0.166666666666667
 _10e,1#37:       x(1,5,1) + x(1,4,1) + x(1,4,0) + x(1,3,1) + x(1,3,0)
                  + x(1,2,1) + x(1,2,0) + x(1,1,1) + x(1,1,0) + x(1,0,1)
                   = 0.166666666666667
 _10e,2#38:       x(2,5,1) + x(2,4,1) + x(2,4,0) + x(2,3,1) + x(2,3,0)
                  + x(2,2,1) + x(2,2,0) + x(2,1,1) + x(2,1,0) + x(2,0,1)
                   = 0.166666666666667
 _10e,3#39:       x(3,5,1) + x(3,4,1) + x(3,4,0) + x(3,3,1) + x(3,3,0)
                  + x(3,2,1) + x(3,2,0) + x(3,1,1) + x(3,1,0) + x(3,0,1)
                   = 0.166666666666667
 _10e,4#40:       x(4,5,1) + x(4,4,1) + x(4,4,0) + x(4,3,1) + x(4,3,0)
                  + x(4,2,1) + x(4,2,0) + x(4,1,1) + x(4,1,0) + x(4,0,1)
                   = 0.166666666666667
 _10e,5#41:       x(5,5,1) + x(5,4,1) + x(5,4,0) + x(5,3,1) + x(5,3,0)
                  + x(5,2,1) + x(5,2,0) + x(5,1,1) + x(5,1,0) + x(5,0,1)
                   = 0.166666666666667
 _12d(0,0)#42:    z(0,0) - y(0) <= 0
 _12e(0,0,1)#43:  z(0,0) - z(0,1) <= 0
 _12e(0,0,2)#44:  z(0,0) - z(0,2) <= 0
 _12e(0,0,3)#45:  z(0,0) - z(0,3) <= 0
 _12e(0,0,4)#46:  z(0,0) - z(0,4) <= 0
 _12e(0,0,5)#47:  z(0,0) - z(0,5) <= 0
 _12d(0,1)#48:    - y(0) + z(0,1) <= 0
 _12e(0,1,2)#49:  z(0,1) - z(0,2) <= 0
 _12e(0,1,3)#50:  z(0,1) - z(0,3) <= 0
 _12e(0,1,4)#51:  z(0,1) - z(0,4) <= 0
 _12e(0,1,5)#52:  z(0,1) - z(0,5) <= 0
 _12d(0,2)#53:    - y(0) + z(0,2) <= 0
 _12e(0,2,3)#54:  z(0,2) - z(0,3) <= 0
 _12e(0,2,4)#55:  z(0,2) - z(0,4) <= 0
 _12e(0,2,5)#56:  z(0,2) - z(0,5) <= 0
 _12d(0,3)#57:    - y(0) + z(0,3) <= 0
 _12e(0,3,4)#58:  z(0,3) - z(0,4) <= 0
 _12e(0,3,5)#59:  z(0,3) - z(0,5) <= 0
 _12d(0,4)#60:    - y(0) + z(0,4) <= 0
 _12e(0,4,5)#61:  z(0,4) - z(0,5) <= 0
 _12d(0,5)#62:    - y(0) + z(0,5) <= 0
 _12d(1,0)#63:    z(1,0) - y(1) <= 0
 _12e(1,0,1)#64:  z(1,0) - z(1,1) <= 0
 _12e(1,0,2)#65:  z(1,0) - z(1,2) <= 0
 _12e(1,0,3)#66:  z(1,0) - z(1,3) <= 0
 _12e(1,0,4)#67:  z(1,0) - z(1,4) <= 0
 _12e(1,0,5)#68:  z(1,0) - z(1,5) <= 0
 _12d(1,1)#69:    - y(1) + z(1,1) <= 0
 _12e(1,1,2)#70:  z(1,1) - z(1,2) <= 0
 _12e(1,1,3)#71:  z(1,1) - z(1,3) <= 0
 _12e(1,1,4)#72:  z(1,1) - z(1,4) <= 0
 _12e(1,1,5)#73:  z(1,1) - z(1,5) <= 0
 _12d(1,2)#74:    - y(1) + z(1,2) <= 0
 _12e(1,2,3)#75:  z(1,2) - z(1,3) <= 0
 _12e(1,2,4)#76:  z(1,2) - z(1,4) <= 0
 _12e(1,2,5)#77:  z(1,2) - z(1,5) <= 0
 _12d(1,3)#78:    - y(1) + z(1,3) <= 0
 _12e(1,3,4)#79:  z(1,3) - z(1,4) <= 0
 _12e(1,3,5)#80:  z(1,3) - z(1,5) <= 0
 _12d(1,4)#81:    - y(1) + z(1,4) <= 0
 _12e(1,4,5)#82:  z(1,4) - z(1,5) <= 0
 _12d(1,5)#83:    - y(1) + z(1,5) <= 0
 _12d(2,0)#84:    z(2,0) - y(2) <= 0
 _12e(2,0,1)#85:  z(2,0) - z(2,1) <= 0
 _12e(2,0,2)#86:  z(2,0) - z(2,2) <= 0
 _12e(2,0,3)#87:  z(2,0) - z(2,3) <= 0
 _12e(2,0,4)#88:  z(2,0) - z(2,4) <= 0
 _12e(2,0,5)#89:  z(2,0) - z(2,5) <= 0
 _12d(2,1)#90:    - y(2) + z(2,1) <= 0
 _12e(2,1,2)#91:  z(2,1) - z(2,2) <= 0
 _12e(2,1,3)#92:  z(2,1) - z(2,3) <= 0
 _12e(2,1,4)#93:  z(2,1) - z(2,4) <= 0
 _12e(2,1,5)#94:  z(2,1) - z(2,5) <= 0
 _12d(2,2)#95:    - y(2) + z(2,2) <= 0
 _12e(2,2,3)#96:  z(2,2) - z(2,3) <= 0
 _12e(2,2,4)#97:  z(2,2) - z(2,4) <= 0
 _12e(2,2,5)#98:  z(2,2) - z(2,5) <= 0
 _12d(2,3)#99:    - y(2) + z(2,3) <= 0
 _12e(2,3,4)#100: z(2,3) - z(2,4) <= 0
 _12e(2,3,5)#101: z(2,3) - z(2,5) <= 0
 _12d(2,4)#102:   - y(2) + z(2,4) <= 0
 _12e(2,4,5)#103: z(2,4) - z(2,5) <= 0
 _12d(2,5)#104:   - y(2) + z(2,5) <= 0
 _12d(3,0)#105:   z(3,0) - y(3) <= 0
 _12e(3,0,1)#106: z(3,0) - z(3,1) <= 0
 _12e(3,0,2)#107: z(3,0) - z(3,2) <= 0
 _12e(3,0,3)#108: z(3,0) - z(3,3) <= 0
 _12e(3,0,4)#109: z(3,0) - z(3,4) <= 0
 _12e(3,0,5)#110: z(3,0) - z(3,5) <= 0
 _12d(3,1)#111:   - y(3) + z(3,1) <= 0
 _12e(3,1,2)#112: z(3,1) - z(3,2) <= 0
 _12e(3,1,3)#113: z(3,1) - z(3,3) <= 0
 _12e(3,1,4)#114: z(3,1) - z(3,4) <= 0
 _12e(3,1,5)#115: z(3,1) - z(3,5) <= 0
 _12d(3,2)#116:   - y(3) + z(3,2) <= 0
 _12e(3,2,3)#117: z(3,2) - z(3,3) <= 0
 _12e(3,2,4)#118: z(3,2) - z(3,4) <= 0
 _12e(3,2,5)#119: z(3,2) - z(3,5) <= 0
 _12d(3,3)#120:   - y(3) + z(3,3) <= 0
 _12e(3,3,4)#121: z(3,3) - z(3,4) <= 0
 _12e(3,3,5)#122: z(3,3) - z(3,5) <= 0
 _12d(3,4)#123:   - y(3) + z(3,4) <= 0
 _12e(3,4,5)#124: z(3,4) - z(3,5) <= 0
 _12d(3,5)#125:   - y(3) + z(3,5) <= 0
 _12d(4,0)#126:   z(4,0) - y(4) <= 0
 _12e(4,0,1)#127: z(4,0) - z(4,1) <= 0
 _12e(4,0,2)#128: z(4,0) - z(4,2) <= 0
 _12e(4,0,3)#129: z(4,0) - z(4,3) <= 0
 _12e(4,0,4)#130: z(4,0) - z(4,4) <= 0
 _12e(4,0,5)#131: z(4,0) - z(4,5) <= 0
 _12d(4,1)#132:   - y(4) + z(4,1) <= 0
 _12e(4,1,2)#133: z(4,1) - z(4,2) <= 0
 _12e(4,1,3)#134: z(4,1) - z(4,3) <= 0
 _12e(4,1,4)#135: z(4,1) - z(4,4) <= 0
 _12e(4,1,5)#136: z(4,1) - z(4,5) <= 0
 _12d(4,2)#137:   - y(4) + z(4,2) <= 0
 _12e(4,2,3)#138: z(4,2) - z(4,3) <= 0
 _12e(4,2,4)#139: z(4,2) - z(4,4) <= 0
 _12e(4,2,5)#140: z(4,2) - z(4,5) <= 0
 _12d(4,3)#141:   - y(4) + z(4,3) <= 0
 _12e(4,3,4)#142: z(4,3) - z(4,4) <= 0
 _12e(4,3,5)#143: z(4,3) - z(4,5) <= 0
 _12d(4,4)#144:   - y(4) + z(4,4) <= 0
 _12e(4,4,5)#145: z(4,4) - z(4,5) <= 0
 _12d(4,5)#146:   - y(4) + z(4,5) <= 0
 _12d(5,0)#147:   z(5,0) - y(5) <= 0
 _12e(5,0,1)#148: z(5,0) - z(5,1) <= 0
 _12e(5,0,2)#149: z(5,0) - z(5,2) <= 0
 _12e(5,0,3)#150: z(5,0) - z(5,3) <= 0
 _12e(5,0,4)#151: z(5,0) - z(5,4) <= 0
 _12e(5,0,5)#152: z(5,0) - z(5,5) <= 0
 _12d(5,1)#153:   - y(5) + z(5,1) <= 0
 _12e(5,1,2)#154: z(5,1) - z(5,2) <= 0
 _12e(5,1,3)#155: z(5,1) - z(5,3) <= 0
 _12e(5,1,4)#156: z(5,1) - z(5,4) <= 0
 _12e(5,1,5)#157: z(5,1) - z(5,5) <= 0
 _12d(5,2)#158:   - y(5) + z(5,2) <= 0
 _12e(5,2,3)#159: z(5,2) - z(5,3) <= 0
 _12e(5,2,4)#160: z(5,2) - z(5,4) <= 0
 _12e(5,2,5)#161: z(5,2) - z(5,5) <= 0
 _12d(5,3)#162:   - y(5) + z(5,3) <= 0
 _12e(5,3,4)#163: z(5,3) - z(5,4) <= 0
 _12e(5,3,5)#164: z(5,3) - z(5,5) <= 0
 _12d(5,4)#165:   - y(5) + z(5,4) <= 0
 _12e(5,4,5)#166: z(5,4) - z(5,5) <= 0
 _12d(5,5)#167:   - y(5) + z(5,5) <= 0
 c169#168:        6 y(0) + t(1) <= 7
 c170#169:        6 y(0) + t(2) <= 8
 c171#170:        7 y(1) + t(2) <= 8
 c172#171:        6 y(0) + t(3) <= 9
 c173#172:        7 y(1) + t(3) <= 9
 c174#173:        8 y(2) + t(3) <= 9
 c175#174:        6 y(0) + t(4) <= 10
 c176#175:        7 y(1) + t(4) <= 10
 c177#176:        8 y(2) + t(4) <= 10
 c178#177:        9 y(3) + t(4) <= 10
 c179#178:        6 y(0) + t(5) <= 11
 c180#179:        7 y(1) + t(5) <= 11
 c181#180:        8 y(2) + t(5) <= 11
 c182#181:        9 y(3) + t(5) <= 11
 c183#182:        10 y(4) + t(5) <= 11
 c184#183:        y(1) + t(0) <= 6
 c185#184:        2 y(2) + t(0) <= 6
 c186#185:        3 y(3) + t(0) <= 6
 c187#186:        4 y(4) + t(0) <= 6
 c188#187:        5 y(5) + t(0) <= 6
 c189#188:        2 y(2) + t(1) <= 7
 c190#189:        3 y(3) + t(1) <= 7
 c191#190:        4 y(4) + t(1) <= 7
 c192#191:        5 y(5) + t(1) <= 7
 c193#192:        3 y(3) + t(2) <= 8
 c194#193:        4 y(4) + t(2) <= 8
 c195#194:        5 y(5) + t(2) <= 8
 c196#195:        4 y(4) + t(3) <= 9
 c197#196:        5 y(5) + t(3) <= 9
 c198#197:        5 y(5) + t(4) <= 10
 c199#198:        - 6 z(0,0) + 6 y(0) - t(0) <= 5
 c200#199:        6 z(0,0) + t(0) <= 6
 c201#200:        6 y(0) - 6 z(0,1) - t(0) <= 4
 c202#201:        6 z(0,1) + t(0) <= 7
 c203#202:        6 y(0) - 6 z(0,2) - t(0) <= 3
 c204#203:        6 z(0,2) + t(0) <= 8
 c205#204:        6 y(0) - 6 z(0,3) - t(0) <= 2
 c206#205:        6 z(0,3) + t(0) <= 9
 c207#206:        6 y(0) - 6 z(0,4) - t(0) <= 1
 c208#207:        6 z(0,4) + t(0) <= 10
 c209#208:        6 y(0) - 6 z(0,5) - t(0) <= 0
 c210#209:        6 z(0,5) + t(0) <= 11
 c211#210:        - 6 z(1,0) + 6 y(1) - t(1) <= 5
 c212#211:        6 z(1,0) + t(1) <= 6
 c213#212:        6 y(1) - 6 z(1,1) - t(1) <= 4
 c214#213:        6 z(1,1) + t(1) <= 7
 c215#214:        6 y(1) - 6 z(1,2) - t(1) <= 3
 c216#215:        6 z(1,2) + t(1) <= 8
 c217#216:        6 y(1) - 6 z(1,3) - t(1) <= 2
 c218#217:        6 z(1,3) + t(1) <= 9
 c219#218:        6 y(1) - 6 z(1,4) - t(1) <= 1
 c220#219:        6 z(1,4) + t(1) <= 10
 c221#220:        6 y(1) - 6 z(1,5) - t(1) <= 0
 c222#221:        6 z(1,5) + t(1) <= 11
 c223#222:        - 6 z(2,0) + 6 y(2) - t(2) <= 5
 c224#223:        6 z(2,0) + t(2) <= 6
 c225#224:        6 y(2) - 6 z(2,1) - t(2) <= 4
 c226#225:        6 z(2,1) + t(2) <= 7
 c227#226:        6 y(2) - 6 z(2,2) - t(2) <= 3
 c228#227:        6 z(2,2) + t(2) <= 8
 c229#228:        6 y(2) - 6 z(2,3) - t(2) <= 2
 c230#229:        6 z(2,3) + t(2) <= 9
 c231#230:        6 y(2) - 6 z(2,4) - t(2) <= 1
 c232#231:        6 z(2,4) + t(2) <= 10
 c233#232:        6 y(2) - 6 z(2,5) - t(2) <= 0
 c234#233:        6 z(2,5) + t(2) <= 11
 c235#234:        - 6 z(3,0) + 6 y(3) - t(3) <= 5
 c236#235:        6 z(3,0) + t(3) <= 6
 c237#236:        6 y(3) - 6 z(3,1) - t(3) <= 4
 c238#237:        6 z(3,1) + t(3) <= 7
 c239#238:        6 y(3) - 6 z(3,2) - t(3) <= 3
 c240#239:        6 z(3,2) + t(3) <= 8
 c241#240:        6 y(3) - 6 z(3,3) - t(3) <= 2
 c242#241:        6 z(3,3) + t(3) <= 9
 c243#242:        6 y(3) - 6 z(3,4) - t(3) <= 1
 c244#243:        6 z(3,4) + t(3) <= 10
 c245#244:        6 y(3) - 6 z(3,5) - t(3) <= 0
 c246#245:        6 z(3,5) + t(3) <= 11
 c247#246:        - 6 z(4,0) + 6 y(4) - t(4) <= 5
 c248#247:        6 z(4,0) + t(4) <= 6
 c249#248:        6 y(4) - 6 z(4,1) - t(4) <= 4
 c250#249:        6 z(4,1) + t(4) <= 7
 c251#250:        6 y(4) - 6 z(4,2) - t(4) <= 3
 c252#251:        6 z(4,2) + t(4) <= 8
 c253#252:        6 y(4) - 6 z(4,3) - t(4) <= 2
 c254#253:        6 z(4,3) + t(4) <= 9
 c255#254:        6 y(4) - 6 z(4,4) - t(4) <= 1
 c256#255:        6 z(4,4) + t(4) <= 10
 c257#256:        6 y(4) - 6 z(4,5) - t(4) <= 0
 c258#257:        6 z(4,5) + t(4) <= 11
 c259#258:        - 6 z(5,0) + 6 y(5) - t(5) <= 5
 c260#259:        6 z(5,0) + t(5) <= 6
 c261#260:        6 y(5) - 6 z(5,1) - t(5) <= 4
 c262#261:        6 z(5,1) + t(5) <= 7
 c263#262:        6 y(5) - 6 z(5,2) - t(5) <= 3
 c264#263:        6 z(5,2) + t(5) <= 8
 c265#264:        6 y(5) - 6 z(5,3) - t(5) <= 2
 c266#265:        6 z(5,3) + t(5) <= 9
 c267#266:        6 y(5) - 6 z(5,4) - t(5) <= 1
 c268#267:        6 z(5,4) + t(5) <= 10
 c269#268:        6 y(5) - 6 z(5,5) - t(5) <= 0
 c270#269:        6 z(5,5) + t(5) <= 11
 c271#270:        z(0,0) + x(0,0,0) <= 1
 c272#271:        x(0,1,0) + z(0,1) <= 1
 c273#272:        x(0,1,1) - z(0,1) <= 0
 c274#273:        x(0,2,0) + z(0,2) <= 1
 c275#274:        x(0,2,1) - z(0,2) <= 0
 c276#275:        x(0,3,0) + z(0,3) <= 1
 c277#276:        x(0,3,1) - z(0,3) <= 0
 c278#277:        x(0,4,0) + z(0,4) <= 1
 c279#278:        x(0,4,1) - z(0,4) <= 0
 c280#279:        z(0,5) + x(0,5,0) <= 1
 c281#280:        z(1,0) + x(1,0,0) <= 1
 c282#281:        x(1,1,0) + z(1,1) <= 1
 c283#282:        x(1,1,1) - z(1,1) <= 0
 c284#283:        x(1,2,0) + z(1,2) <= 1
 c285#284:        x(1,2,1) - z(1,2) <= 0
 c286#285:        x(1,3,0) + z(1,3) <= 1
 c287#286:        x(1,3,1) - z(1,3) <= 0
 c288#287:        x(1,4,0) + z(1,4) <= 1
 c289#288:        x(1,4,1) - z(1,4) <= 0
 c290#289:        z(1,5) + x(1,5,0) <= 1
 c291#290:        z(2,0) + x(2,0,0) <= 1
 c292#291:        x(2,1,0) + z(2,1) <= 1
 c293#292:        x(2,1,1) - z(2,1) <= 0
 c294#293:        x(2,2,0) + z(2,2) <= 1
 c295#294:        x(2,2,1) - z(2,2) <= 0
 c296#295:        x(2,3,0) + z(2,3) <= 1
 c297#296:        x(2,3,1) - z(2,3) <= 0
 c298#297:        x(2,4,0) + z(2,4) <= 1
 c299#298:        x(2,4,1) - z(2,4) <= 0
 c300#299:        z(2,5) + x(2,5,0) <= 1
 c301#300:        z(3,0) + x(3,0,0) <= 1
 c302#301:        x(3,1,0) + z(3,1) <= 1
 c303#302:        x(3,1,1) - z(3,1) <= 0
 c304#303:        x(3,2,0) + z(3,2) <= 1
 c305#304:        x(3,2,1) - z(3,2) <= 0
 c306#305:        x(3,3,0) + z(3,3) <= 1
 c307#306:        x(3,3,1) - z(3,3) <= 0
 c308#307:        x(3,4,0) + z(3,4) <= 1
 c309#308:        x(3,4,1) - z(3,4) <= 0
 c310#309:        z(3,5) + x(3,5,0) <= 1
 c311#310:        z(4,0) + x(4,0,0) <= 1
 c312#311:        x(4,1,0) + z(4,1) <= 1
 c313#312:        x(4,1,1) - z(4,1) <= 0
 c314#313:        x(4,2,0) + z(4,2) <= 1
 c315#314:        x(4,2,1) - z(4,2) <= 0
 c316#315:        x(4,3,0) + z(4,3) <= 1
 c317#316:        x(4,3,1) - z(4,3) <= 0
 c318#317:        x(4,4,0) + z(4,4) <= 1
 c319#318:        x(4,4,1) - z(4,4) <= 0
 c320#319:        z(4,5) + x(4,5,0) <= 1
 c321#320:        z(5,0) + x(5,0,0) <= 1
 c322#321:        x(5,1,0) + z(5,1) <= 1
 c323#322:        x(5,1,1) - z(5,1) <= 0
 c324#323:        x(5,2,0) + z(5,2) <= 1
 c325#324:        x(5,2,1) - z(5,2) <= 0
 c326#325:        x(5,3,0) + z(5,3) <= 1
 c327#326:        x(5,3,1) - z(5,3) <= 0
 c328#327:        x(5,4,0) + z(5,4) <= 1
 c329#328:        x(5,4,1) - z(5,4) <= 0
 c330#329:        z(5,5) + x(5,5,0) <= 1
Bounds
 0 <= x(5,5,1) <= 0.166666666666667
 0 <= x(5,4,1) <= 0.166666666666667
 0 <= x(5,4,0) <= 0.166666666666667
 0 <= x(5,3,1) <= 0.166666666666667
 0 <= x(5,3,0) <= 0.166666666666667
 0 <= x(5,2,1) <= 0.166666666666667
 0 <= x(5,2,0) <= 0.166666666666667
 0 <= x(5,1,1) <= 0.166666666666667
 0 <= x(5,1,0) <= 0.166666666666667
 0 <= x(5,0,1) <= 0.166666666666667
 0 <= x(4,5,1) <= 0.166666666666667
 0 <= x(4,4,1) <= 0.166666666666667
 0 <= x(4,4,0) <= 0.166666666666667
 0 <= x(4,3,1) <= 0.166666666666667
 0 <= x(4,3,0) <= 0.166666666666667
 0 <= x(4,2,1) <= 0.166666666666667
 0 <= x(4,2,0) <= 0.166666666666667
 0 <= x(4,1,1) <= 0.166666666666667
 0 <= x(4,1,0) <= 0.166666666666667
 0 <= x(4,0,1) <= 0.166666666666667
 0 <= x(3,5,1) <= 0.166666666666667
 0 <= x(3,4,1) <= 0.166666666666667
 0 <= x(3,4,0) <= 0.166666666666667
 0 <= x(3,3,1) <= 0.166666666666667
 0 <= x(3,3,0) <= 0.166666666666667
 0 <= x(3,2,1) <= 0.166666666666667
 0 <= x(3,2,0) <= 0.166666666666667
 0 <= x(3,1,1) <= 0.166666666666667
 0 <= x(3,1,0) <= 0.166666666666667
 0 <= x(3,0,1) <= 0.166666666666667
 0 <= x(2,5,1) <= 0.166666666666667
 0 <= x(2,4,1) <= 0.166666666666667
 0 <= x(2,4,0) <= 0.166666666666667
 0 <= x(2,3,1) <= 0.166666666666667
 0 <= x(2,3,0) <= 0.166666666666667
 0 <= x(2,2,1) <= 0.166666666666667
 0 <= x(2,2,0) <= 0.166666666666667
 0 <= x(2,1,1) <= 0.166666666666667
 0 <= x(2,1,0) <= 0.166666666666667
 0 <= x(2,0,1) <= 0.166666666666667
 0 <= x(1,5,1) <= 0.166666666666667
 0 <= x(1,4,1) <= 0.166666666666667
 0 <= x(1,4,0) <= 0.166666666666667
 0 <= x(1,3,1) <= 0.166666666666667
 0 <= x(1,3,0) <= 0.166666666666667
 0 <= x(1,2,1) <= 0.166666666666667
 0 <= x(1,2,0) <= 0.166666666666667
 0 <= x(1,1,1) <= 0.166666666666667
 0 <= x(1,1,0) <= 0.166666666666667
 0 <= x(1,0,1) <= 0.166666666666667
 0 <= x(0,5,1) <= 0.166666666666667
 0 <= x(0,4,1) <= 0.166666666666667
 0 <= x(0,4,0) <= 0.166666666666667
 0 <= x(0,3,1) <= 0.166666666666667
 0 <= x(0,3,0) <= 0.166666666666667
 0 <= x(0,2,1) <= 0.166666666666667
 0 <= x(0,2,0) <= 0.166666666666667
 0 <= x(0,1,1) <= 0.166666666666667
 0 <= x(0,1,0) <= 0.166666666666667
 0 <= x(0,0,1) <= 0.166666666666667
 0 <= z(0,0) <= 1
 0 <= y(0) <= 1
 0 <= z(0,1) <= 1
 0 <= z(0,2) <= 1
 0 <= z(0,3) <= 1
 0 <= z(0,4) <= 1
 0 <= z(0,5) <= 1
 0 <= z(1,0) <= 1
 0 <= y(1) <= 1
 0 <= z(1,1) <= 1
 0 <= z(1,2) <= 1
 0 <= z(1,3) <= 1
 0 <= z(1,4) <= 1
 0 <= z(1,5) <= 1
 0 <= z(2,0) <= 1
 0 <= y(2) <= 1
 0 <= z(2,1) <= 1
 0 <= z(2,2) <= 1
 0 <= z(2,3) <= 1
 0 <= z(2,4) <= 1
 0 <= z(2,5) <= 1
 0 <= z(3,0) <= 1
 0 <= y(3) <= 1
 0 <= z(3,1) <= 1
 0 <= z(3,2) <= 1
 0 <= z(3,3) <= 1
 0 <= z(3,4) <= 1
 0 <= z(3,5) <= 1
 0 <= z(4,0) <= 1
 0 <= y(4) <= 1
 0 <= z(4,1) <= 1
 0 <= z(4,2) <= 1
 0 <= z(4,3) <= 1
 0 <= z(4,4) <= 1
 0 <= z(4,5) <= 1
 0 <= z(5,0) <= 1
 0 <= y(5) <= 1
 0 <= z(5,1) <= 1
 0 <= z(5,2) <= 1
 0 <= z(5,3) <= 1
 0 <= z(5,4) <= 1
 0 <= z(5,5) <= 1
 0 <= t(1) <= 6
 0 <= t(2) <= 6
 0 <= t(3) <= 6
 0 <= t(4) <= 6
 0 <= t(5) <= 6
 0 <= t(0) <= 6
 0 <= x(0,0,0) <= 0.166666666666667
 0 <= x(0,5,0) <= 0.166666666666667
 0 <= x(1,0,0) <= 0.166666666666667
 0 <= x(1,5,0) <= 0.166666666666667
 0 <= x(2,0,0) <= 0.166666666666667
 0 <= x(2,5,0) <= 0.166666666666667
 0 <= x(3,0,0) <= 0.166666666666667
 0 <= x(3,5,0) <= 0.166666666666667
 0 <= x(4,0,0) <= 0.166666666666667
 0 <= x(4,5,0) <= 0.166666666666667
 0 <= x(5,0,0) <= 0.166666666666667
 0 <= x(5,5,0) <= 0.166666666666667
Generals
 z(0,0)  y(0)  z(0,1)  z(0,2)  z(0,3)  z(0,4)  z(0,5)  z(1,0)  y(1)  z(1,1) 
 z(1,2)  z(1,3)  z(1,4)  z(1,5)  z(2,0)  y(2)  z(2,1)  z(2,2)  z(2,3)  z(2,4) 
 z(2,5)  z(3,0)  y(3)  z(3,1)  z(3,2)  z(3,3)  z(3,4)  z(3,5)  z(4,0)  y(4) 
 z(4,1)  z(4,2)  z(4,3)  z(4,4)  z(4,5)  z(5,0)  y(5)  z(5,1)  z(5,2)  z(5,3) 
 z(5,4)  z(5,5)  t(1)  t(2)  t(3)  t(4)  t(5)  t(0) 
End
